c colouring generated by benchmark framework
p edge 225 5180
v 1 20
v 2 12
v 3 5
v 4 21
v 5 14
v 6 6
v 7 18
v 8 1
v 9 15
v 10 11
v 11 8
v 12 3
v 13 9
v 14 17
v 15 13
v 16 1
v 17 2
v 18 19
v 19 12
v 20 10
v 21 8
v 22 16
v 23 21
v 24 13
v 25 3
v 26 0
v 27 18
v 28 5
v 29 11
v 30 14
v 31 4
v 32 5
v 33 18
v 34 11
v 35 9
v 36 22
v 37 10
v 38 7
v 39 1
v 40 20
v 41 14
v 42 21
v 43 0
v 44 12
v 45 3
v 46 6
v 47 0
v 48 9
v 49 7
v 50 13
v 51 11
v 52 17
v 53 19
v 54 21
v 55 16
v 56 3
v 57 22
v 58 18
v 59 15
v 60 1
v 61 5
v 62 4
v 63 11
v 64 10
v 65 3
v 66 18
v 67 6
v 68 15
v 69 7
v 70 1
v 71 9
v 72 2
v 73 12
v 74 14
v 75 21
v 76 0
v 77 22
v 78 21
v 79 1
v 80 8
v 81 4
v 82 2
v 83 3
v 84 19
v 85 5
v 86 17
v 87 14
v 88 6
v 89 7
v 90 10
v 91 3
v 92 7
v 93 17
v 94 22
v 95 20
v 96 12
v 97 11
v 98 0
v 99 14
v 100 13
v 101 6
v 102 8
v 103 10
v 104 19
v 105 5
v 106 11
v 107 9
v 108 1
v 109 0
v 110 5
v 111 19
v 112 20
v 113 12
v 114 8
v 115 10
v 116 16
v 117 17
v 118 13
v 119 3
v 120 18
v 121 7
v 122 10
v 123 22
v 124 17
v 125 15
v 126 13
v 127 21
v 128 6
v 129 16
v 130 4
v 131 1
v 132 12
v 133 11
v 134 0
v 135 2
v 136 12
v 137 18
v 138 13
v 139 4
v 140 2
v 141 1
v 142 15
v 143 5
v 144 0
v 145 14
v 146 7
v 147 19
v 148 8
v 149 22
v 150 20
v 151 17
v 152 8
v 153 10
v 154 6
v 155 7
v 156 3
v 157 19
v 158 18
v 159 9
v 160 22
v 161 13
v 162 5
v 163 20
v 164 1
v 165 12
v 166 14
v 167 1
v 168 7
v 169 16
v 170 0
v 171 20
v 172 9
v 173 4
v 174 17
v 175 8
v 176 19
v 177 15
v 178 3
v 179 18
v 180 11
v 181 13
v 182 15
v 183 2
v 184 19
v 185 17
v 186 7
v 187 5
v 188 20
v 189 6
v 190 12
v 191 18
v 192 11
v 193 1
v 194 21
v 195 16
v 196 16
v 197 20
v 198 4
v 199 18
v 200 22
v 201 0
v 202 3
v 203 10
v 204 11
v 205 21
v 206 2
v 207 6
v 208 17
v 209 8
v 210 15
v 211 8
v 212 11
v 213 0
v 214 5
v 215 16
v 216 2
v 217 1
v 218 17
v 219 12
v 220 6
v 221 10
v 222 9
v 223 15
v 224 4
v 225 22
